clingo version 5.5.2
Reading from stdin
Solving...
UNSATISFIABLE

Models       : 0
Calls        : 1
Time         : 3.106s (Solving: 0.00s 1st Model: 0.00s Unsat: 0.00s)
CPU Time     : 3.109s

Choices      : 1       
Conflicts    : 2        (Analyzed: 1)
Restarts     : 0       
Problems     : 1        (Average Length: 0.00 Splits: 0)
Lemmas       : 1        (Deleted: 0)
  Binary     : 0        (Ratio:   0.00%)
  Ternary    : 0        (Ratio:   0.00%)
  Conflict   : 1        (Average Length:    1.0 Ratio: 100.00%) 
  Loop       : 0        (Average Length:    0.0 Ratio:   0.00%) 
  Other      : 0        (Average Length:    0.0 Ratio:   0.00%) 
Backjumps    : 1        (Average:  1.00 Max:   1 Sum:      1)
  Executed   : 1        (Average:  1.00 Max:   1 Sum:      1 Ratio: 100.00%)
  Bounded    : 0        (Average:  0.00 Max:   0 Sum:      0 Ratio:   0.00%)

Rules        : 18671   
Atoms        : 482     
Bodies       : 18188   
Equivalences : 404      (Atom=Atom: 31 Body=Body: 112 Other: 261)
Tight        : No       (SCCs: 1 Non-Hcfs: 0 Nodes: 16008 Gammas: 0)
Variables    : 17048    (Eliminated:    0 Frozen: 16078)
Constraints  : 85788    (Binary:  79.9% Ternary:   0.3% Other:  19.8%)

